; --proof-with-sharing --index-fresh-sorts --proof-define-skolems --proof-prune --proof-merge --disable-print-success --disable-banner --max-time=30
(set-option :produce-proofs true)
(set-logic AUFLIA)
(declare-sort Nat_d 0)
(declare-sort Enat_d 0)
(declare-sort A_s_a_fun_fun_d 0)
(declare-sort A_literal_multiset_d 0)
(declare-sort A_literal_multiset_set_d 0)
(declare-sort A_literal_multiset_set_a_literal_multiset_set_a_literal_multiset_set_prod_prod_d 0)
(declare-sort A_literal_multiset_set_a_literal_multiset_set_a_literal_multiset_set_prod_prod_llist_d 0)
(declare-fun c_d () A_literal_multiset_d)
(declare-fun d_d () A_literal_multiset_d)
(declare-fun i_d () Nat_d)
(declare-fun sts_d () A_literal_multiset_set_a_literal_multiset_set_a_literal_multiset_set_prod_prod_llist_d)
(declare-fun sup_d (A_literal_multiset_set_d A_literal_multiset_set_d) A_literal_multiset_set_d)
(declare-fun enat_d (Nat_d) Enat_d)
(declare-fun less_d (Enat_d Enat_d) Bool)
(declare-fun lnth_d (A_literal_multiset_set_a_literal_multiset_set_a_literal_multiset_set_prod_prod_llist_d Nat_d) A_literal_multiset_set_a_literal_multiset_set_a_literal_multiset_set_prod_prod_d)
(declare-fun member_d (A_literal_multiset_d A_literal_multiset_set_d) Bool)
(declare-fun llength_d (A_literal_multiset_set_a_literal_multiset_set_a_literal_multiset_set_prod_prod_llist_d) Enat_d)
(declare-fun subsumes_d (A_s_a_fun_fun_d A_literal_multiset_d A_literal_multiset_d) Bool)
(declare-fun subst_atm_d () A_s_a_fun_fun_d)
(declare-fun n_of_state_d (A_literal_multiset_set_a_literal_multiset_set_a_literal_multiset_set_prod_prod_d) A_literal_multiset_set_d)
(declare-fun p_of_state_d (A_literal_multiset_set_a_literal_multiset_set_a_literal_multiset_set_prod_prod_d) A_literal_multiset_set_d)
(declare-fun q_of_state_d (A_literal_multiset_set_a_literal_multiset_set_a_literal_multiset_set_prod_prod_d) A_literal_multiset_set_d)
(assert (! (not (member_d d_d (sup_d (sup_d (n_of_state_d (lnth_d sts_d i_d)) (p_of_state_d (lnth_d sts_d i_d))) (q_of_state_d (lnth_d sts_d i_d))))) :named a0))
(assert (! (member_d d_d (sup_d (sup_d (n_of_state_d (lnth_d sts_d i_d)) (p_of_state_d (lnth_d sts_d i_d))) (q_of_state_d (lnth_d sts_d i_d)))) :named a1))
(assert (! (subsumes_d subst_atm_d d_d c_d) :named a2))
(assert (! (less_d (enat_d i_d) (llength_d sts_d)) :named a3))
(check-sat)
;;;;(get-proof)
